     Program PWSCF v.6.1 (svn rev. 13369) starts on  1Jun2017 at  0:50:53

     Current dimensions of program PWSCF are:
     Max number of different atomic species (ntypx) = 10
     Max number of k-points (npk) =  40000
     Max angular momentum in pseudopotentials (lmaxx) =  3
               file 08-o.lda.fhi.UPF: wavefunction(s)  3d renormalized
               file 03-li.lda.fhi.UPF: wavefunction(s)  p f renormalized

     Subspace diagonalization in iterative solution of the eigenvalue problem:
     a serial algorithm will be used

     bravais-lattice index     =            0
     lattice parameter (alat)  =      11.1683  a.u.
     unit-cell volume          =    2946.5845 (a.u.)^3
     number of atoms/cell      =           48
     number of atomic types    =            4
     number of electrons       =       278.00
     number of Kohn-Sham states=          167
     kinetic-energy cutoff     =     100.0000  Ry
     charge density cutoff     =     400.0000  Ry
     convergence threshold     =      1.1E-06
     mixing beta               =       0.3000
     number of iterations used =            8  plain     mixing
     Exchange-correlation      = SLA  PW   NOGX NOGC ( 1  4  0  0 0 0)

     celldm(1)=  11.168281  celldm(2)=   0.000000  celldm(3)=   0.000000
     celldm(4)=   0.000000  celldm(5)=   0.000000  celldm(6)=   0.000000

     crystal axes: (cart. coord. in units of alat)
               a(1) = (   1.000000   0.000000   0.000000 )
               a(2) = (  -0.500000   0.866025   0.000000 )
               a(3) = (   0.000000   0.000000   2.442470 )

     reciprocal axes: (cart. coord. in units 2 pi/alat)
               b(1) = (  1.000000  0.577350  0.000000 )
               b(2) = (  0.000000  1.154701  0.000000 )
               b(3) = (  0.000000  0.000000  0.409422 )

     PseudoPot. # 1 for Ti read from file:
     /hpcgpfs01/scratch/mtopsakal/paradox/OCEAN-1.2.0-IC/ti.fhi.UPF
     MD5 check sum: c4bdc3654679b6e653b810d3fa8e26c3
     Pseudo is Norm-conserving, Zval = 12.0
     Generated using FHI98PP, converted with fhi2upf.x v.5.0.2
     Using radial grid of 1156 points,  2 beta functions with:
                l(1) =   0
                l(2) =   2

     PseudoPot. # 2 for Ti read from file:
     /hpcgpfs01/scratch/mtopsakal/paradox/OCEAN-1.2.0-IC/ti.fhi.UPF
     MD5 check sum: c4bdc3654679b6e653b810d3fa8e26c3
     Pseudo is Norm-conserving, Zval = 12.0
     Generated using FHI98PP, converted with fhi2upf.x v.5.0.2
     Using radial grid of 1156 points,  2 beta functions with:
                l(1) =   0
                l(2) =   2

     PseudoPot. # 3 for O  read from file:
     /hpcgpfs01/scratch/mtopsakal/paradox/OCEAN-1.2.0-IC/08-o.lda.fhi.UPF
     MD5 check sum: c35f640a64c00feec7ce3b63cda5293b
     Pseudo is Norm-conserving, Zval =  6.0
     Generated by new atomic code, or converted to UPF format
     Using radial grid of  473 points,  3 beta functions with:
                l(1) =   0
                l(2) =   1
                l(3) =   3

     PseudoPot. # 4 for Li read from file:
     /hpcgpfs01/scratch/mtopsakal/paradox/OCEAN-1.2.0-IC/03-li.lda.fhi.UPF
     MD5 check sum: 58292b5c7d2b386e0f8e504c5a35e26e
     Pseudo is Norm-conserving + core correction, Zval =  1.0
     Generated by new atomic code, or converted to UPF format
     Using radial grid of  433 points,  3 beta functions with:
                l(1) =   0
                l(2) =   1
                l(3) =   3

     atomic species   valence    mass     pseudopotential
        Ti1           12.00    47.86700     Ti( 1.00)
        Ti2           12.00    47.86700     Ti( 1.00)
        O              6.00    15.99940     O ( 1.00)
        Li             1.00     6.94100     Li( 1.00)

     Starting magnetic structure
     atomic species   magnetization
        Ti1          0.500
        Ti2          0.000
        O            0.000
        Li           0.000

     Simplified LDA+U calculation (l_max = 2) with parameters (eV):
     atomic species    L          U    alpha       J0     beta
        Ti1            2     4.0000   0.0000   0.0000   0.0000

     No symmetry found

   Cartesian axes

     site n.     atom                  positions (alat units)
         1           Ti1 tau(   1) = (   0.5000000   0.0000000   0.0000000  )
         2           Ti1 tau(   2) = (  -0.2500000   0.4330127   0.0000000  )
         3           Ti1 tau(   3) = (   0.0023400   0.2914002   1.6248779  )
         4           Ti1 tau(   4) = (   0.2511900   0.1477266   0.8175925  )
         5           Ti1 tau(   5) = (   0.4976600   0.5746252   0.8175925  )
         6           Ti1 tau(   6) = (   0.2488100   0.7182988   1.6248779  )
         7           Ti2 tau(   7) = (   0.4925200   0.2929937   1.6187717  )
         8           Ti2 tau(   8) = (   0.0074800   0.5730317   0.8236987  )
         9           Ti2 tau(   9) = (   0.7506250   0.1439767   2.0552167  )
        10           Ti2 tau(  10) = (  -0.2506250   0.7220487   0.3872537  )
        11           O   tau(  11) = (   0.2414500   0.4379490   0.6241733  )
        12           O   tau(  12) = (   0.2585500   0.4280764   1.8182971  )
        13           O   tau(  13) = (   0.5176400   0.5822462   0.2148641  )
        14           O   tau(  14) = (   0.2454200   0.7394125   2.2276063  )
        15           O   tau(  15) = (  -0.0176400   0.2837792   2.2276063  )
        16           O   tau(  16) = (   0.2545800   0.1266129   0.2148641  )
        17           O   tau(  17) = (  -0.0079850   0.5819604   0.2053873  )
        18           O   tau(  18) = (   0.5079850   0.2840650   2.2370831  )
        19           O   tau(  19) = (   0.5011400   0.5643022   1.4428405  )
        20           O   tau(  20) = (   0.2381300   0.7161510   0.9996299  )
        21           O   tau(  21) = (  -0.0011400   0.3017233   0.9996299  )
        22           O   tau(  22) = (   0.2618700   0.1498744   1.4428405  )
        23           O   tau(  23) = (   0.0146350   0.5689007   1.4465775  )
        24           O   tau(  24) = (   0.4853650   0.2971247   0.9958929  )
        25           O   tau(  25) = (   0.7428100   0.1484887   1.4381998  )
        26           O   tau(  26) = (  -0.2428100   0.7175367   1.0042705  )
        27           O   tau(  27) = (   0.5163350   0.0183164   1.8309002  )
        28           O   tau(  28) = (  -0.2423050   0.4563174   0.6115702  )
        29           O   tau(  29) = (  -0.0163350   0.8477090   0.6115702  )
        30           O   tau(  30) = (   0.7423050   0.4097080   1.8309002  )
        31           O   tau(  31) = (   0.7361200   0.1523512   0.1813779  )
        32           O   tau(  32) = (  -0.2361200   0.7136742   2.2610925  )
        33           O   tau(  33) = (   0.9774550   0.0130164   1.8292393  )
        34           O   tau(  34) = (  -0.4774550   0.8530090   0.6132310  )
        35           Li  tau(  35) = (   0.2500000   0.4330127   0.0000000  )
        36           Li  tau(  36) = (   0.0000000   0.0000000   1.2212352  )
        37           Li  tau(  37) = (   0.0008100   0.2832423   0.3986844  )
        38           Li  tau(  38) = (   0.2448900   0.1423226   2.0437859  )
        39           Li  tau(  39) = (   0.4991900   0.5827831   2.0437859  )
        40           Li  tau(  40) = (   0.2551100   0.7237028   0.3986844  )
        41           Li  tau(  41) = (   0.5000050   0.2886722   0.4036182  )
        42           Li  tau(  42) = (  -0.0000050   0.5773532   2.0388522  )
        43           Li  tau(  43) = (   0.5000000   0.0000000   1.2212352  )
        44           Li  tau(  44) = (  -0.2500000   0.4330127   1.2212352  )
        45           Li  tau(  45) = (   0.7463800   0.1464276   0.8180810  )
        46           Li  tau(  46) = (  -0.2463800   0.7195978   1.6243894  )
        47           Li  tau(  47) = (   0.2500000   0.4330127   1.2212352  )
        48           Li  tau(  48) = (   0.0000000   0.0000000   0.0000000  )

     number of k points=    32  gaussian smearing, width (Ry)=  0.0020
                       cart. coord. in units 2pi/alat
        k(    1) = (   0.0000000   0.0000000   0.0000000), wk =   0.0312500
        k(    2) = (   0.0000000   0.0000000  -0.2047108), wk =   0.0312500
        k(    3) = (   0.0000000   0.2886751   0.0000000), wk =   0.0312500
        k(    4) = (   0.0000000   0.2886751  -0.2047108), wk =   0.0312500
        k(    5) = (   0.0000000  -0.5773503   0.0000000), wk =   0.0312500
        k(    6) = (   0.0000000  -0.5773503  -0.2047108), wk =   0.0312500
        k(    7) = (   0.0000000  -0.2886751   0.0000000), wk =   0.0312500
        k(    8) = (   0.0000000  -0.2886751  -0.2047108), wk =   0.0312500
        k(    9) = (   0.2500000   0.1443376   0.0000000), wk =   0.0312500
        k(   10) = (   0.2500000   0.1443376  -0.2047108), wk =   0.0312500
        k(   11) = (   0.2500000   0.4330127   0.0000000), wk =   0.0312500
        k(   12) = (   0.2500000   0.4330127  -0.2047108), wk =   0.0312500
        k(   13) = (   0.2500000  -0.4330127   0.0000000), wk =   0.0312500
        k(   14) = (   0.2500000  -0.4330127  -0.2047108), wk =   0.0312500
        k(   15) = (   0.2500000  -0.1443376   0.0000000), wk =   0.0312500
        k(   16) = (   0.2500000  -0.1443376  -0.2047108), wk =   0.0312500
        k(   17) = (  -0.5000000  -0.2886751   0.0000000), wk =   0.0312500
        k(   18) = (  -0.5000000  -0.2886751  -0.2047108), wk =   0.0312500
        k(   19) = (  -0.5000000   0.0000000   0.0000000), wk =   0.0312500
        k(   20) = (  -0.5000000   0.0000000  -0.2047108), wk =   0.0312500
        k(   21) = (  -0.5000000  -0.8660254   0.0000000), wk =   0.0312500
        k(   22) = (  -0.5000000  -0.8660254  -0.2047108), wk =   0.0312500
        k(   23) = (  -0.5000000  -0.5773503   0.0000000), wk =   0.0312500
        k(   24) = (  -0.5000000  -0.5773503  -0.2047108), wk =   0.0312500
        k(   25) = (  -0.2500000  -0.1443376   0.0000000), wk =   0.0312500
        k(   26) = (  -0.2500000  -0.1443376  -0.2047108), wk =   0.0312500
        k(   27) = (  -0.2500000   0.1443376   0.0000000), wk =   0.0312500
        k(   28) = (  -0.2500000   0.1443376  -0.2047108), wk =   0.0312500
        k(   29) = (  -0.2500000  -0.7216878   0.0000000), wk =   0.0312500
        k(   30) = (  -0.2500000  -0.7216878  -0.2047108), wk =   0.0312500
        k(   31) = (  -0.2500000  -0.4330127   0.0000000), wk =   0.0312500
        k(   32) = (  -0.2500000  -0.4330127  -0.2047108), wk =   0.0312500

     Initial potential from superposition of free atoms

     starting charge  303.15396, renormalised to  278.00000
     Number of +U iterations with fixed ns =  0
     Starting occupations:
 --- enter write_ns ---
 LDA+U parameters:
U( 1)     =  4.00000000
alpha( 1) =  0.00000000
atom    1   Tr[ns(na)] (up, down, total) =   2.00000  0.00000  2.00000
   spin  1
    eigenvalues:
  0.400  0.400  0.400  0.400  0.400
    eigenvectors:
  1.000  0.000  0.000  0.000  0.000
  0.000  1.000  0.000  0.000  0.000
  0.000  0.000  1.000  0.000  0.000
  0.000  0.000  0.000  1.000  0.000
  0.000  0.000  0.000  0.000  1.000
    occupations:
  0.400  0.000  0.000  0.000  0.000
[...]
    eigenvectors:
  0.007  0.000  0.564  0.062  0.367
  0.016  0.666  0.002  0.277  0.039
  0.695  0.014  0.160  0.007  0.123
  0.280  0.003  0.274  0.058  0.385
  0.002  0.317  0.000  0.596  0.086
    occupations:
  0.828  0.001  0.052  0.127 -0.003
  0.001  0.711  0.014 -0.006  0.179
  0.052  0.014  0.622  0.144  0.014
  0.127 -0.006  0.144  0.783  0.002
 -0.003  0.179  0.014  0.002  0.852
   spin  2
    eigenvalues:
  0.084  0.095  0.123  0.240  0.275
    eigenvectors:
  0.377  0.617  0.002  0.003  0.000
  0.309  0.187  0.009  0.064  0.431
  0.005  0.001  0.330  0.576  0.089
  0.001  0.013  0.655  0.296  0.036
  0.308  0.183  0.004  0.061  0.443
    occupations:
  0.092 -0.004 -0.007  0.006 -0.004
 -0.004  0.179  0.005 -0.005 -0.091
 -0.007  0.005  0.204 -0.057 -0.010
  0.006 -0.005 -0.057  0.163  0.002
 -0.004 -0.091 -0.010  0.002  0.180
atomic mag. moment =     2.979892
N of occupied +U levels =   24.144087
 --- exit write_ns ---

     total energy              =   -1934.95489276 Ry
     Harris-Foulkes estimate   =   -1953.84909782 Ry
     estimated scf accuracy    <      45.05225399 Ry

     total magnetization       =     9.15 Bohr mag/cell
     absolute magnetization    =    19.45 Bohr mag/cell

     iteration #  2     ecut=   100.00 Ry     beta=0.30
     Davidson diagonalization with overlap
     ethr =  1.00E-02,  avg # of iterations =  7.0

[...]

     iteration # 15     ecut=   100.00 Ry     beta=0.30
     Davidson diagonalization with overlap
     c_bands:  1 eigenvalues not converged
     ethr =  1.09E-05,  avg # of iterations =  7.9

[...]

     iteration # 16     ecut=   100.00 Ry     beta=0.30
     Davidson diagonalization with overlap
     c_bands:  1 eigenvalues not converged
     c_bands:  1 eigenvalues not converged
     c_bands:  1 eigenvalues not converged
     c_bands:  1 eigenvalues not converged
     c_bands:  1 eigenvalues not converged
     c_bands:  1 eigenvalues not converged
     ethr =  4.84E-06,  avg # of iterations = 14.8

[...]

     total energy              =   -1944.10692016 Ry
     Harris-Foulkes estimate   =   -1944.10692058 Ry
     estimated scf accuracy    <       0.00000166 Ry

[...]

     iteration # 31     ecut=   100.00 Ry     beta=0.30
     Davidson diagonalization with overlap
     ethr =  5.97E-10,  avg # of iterations =  4.0

     Magnetic moment per site:
     atom:    1    charge:    8.5743    magn:    0.5760    constr:    0.0000
     atom:    2    charge:    8.5743    magn:    0.5760    constr:    0.0000
     atom:    3    charge:    8.5858    magn:    0.6257    constr:    0.0000
     atom:    4    charge:    8.5858    magn:    0.6257    constr:    0.0000
     atom:    5    charge:    8.5858    magn:    0.6257    constr:    0.0000
     atom:    6    charge:    8.5858    magn:    0.6257    constr:    0.0000
     atom:    7    charge:    8.3635    magn:    0.0883    constr:    0.0000
     atom:    8    charge:    8.3634    magn:    0.0883    constr:    0.0000
     atom:    9    charge:    8.3739    magn:    0.1017    constr:    0.0000
     atom:   10    charge:    8.3739    magn:    0.1017    constr:    0.0000
     atom:   11    charge:    5.2677    magn:    0.0139    constr:    0.0000
     atom:   12    charge:    5.2676    magn:    0.0138    constr:    0.0000
     atom:   13    charge:    5.2506    magn:    0.0063    constr:    0.0000
     atom:   14    charge:    5.2506    magn:    0.0063    constr:    0.0000
     atom:   15    charge:    5.2506    magn:    0.0063    constr:    0.0000
     atom:   16    charge:    5.2506    magn:    0.0063    constr:    0.0000
     atom:   17    charge:    5.2702    magn:    0.0090    constr:    0.0000
     atom:   18    charge:    5.2702    magn:    0.0090    constr:    0.0000
     atom:   19    charge:    5.2477    magn:    0.0098    constr:    0.0000
     atom:   20    charge:    5.2477    magn:    0.0098    constr:    0.0000
     atom:   21    charge:    5.2477    magn:    0.0098    constr:    0.0000
     atom:   22    charge:    5.2477    magn:    0.0098    constr:    0.0000
     atom:   23    charge:    5.2760    magn:   -0.0288    constr:    0.0000
     atom:   24    charge:    5.2760    magn:   -0.0290    constr:    0.0000
     atom:   25    charge:    5.2663    magn:    0.0136    constr:    0.0000
     atom:   26    charge:    5.2663    magn:    0.0137    constr:    0.0000
     atom:   27    charge:    5.2520    magn:    0.0048    constr:    0.0000
     atom:   28    charge:    5.2520    magn:    0.0049    constr:    0.0000
     atom:   29    charge:    5.2520    magn:    0.0049    constr:    0.0000
     atom:   30    charge:    5.2520    magn:    0.0048    constr:    0.0000
     atom:   31    charge:    5.2682    magn:   -0.0276    constr:    0.0000
     atom:   32    charge:    5.2682    magn:   -0.0276    constr:    0.0000
     atom:   33    charge:    5.2715    magn:   -0.0170    constr:    0.0000
     atom:   34    charge:    5.2715    magn:   -0.0171    constr:    0.0000
     atom:   35    charge:    0.1537    magn:    0.0002    constr:    0.0000
     atom:   36    charge:    0.1501    magn:    0.0003    constr:    0.0000
     atom:   37    charge:    0.1771    magn:   -0.0003    constr:    0.0000
     atom:   38    charge:    0.1771    magn:   -0.0003    constr:    0.0000
     atom:   39    charge:    0.1771    magn:   -0.0003    constr:    0.0000
     atom:   40    charge:    0.1771    magn:   -0.0003    constr:    0.0000
     atom:   41    charge:    0.1912    magn:   -0.0001    constr:    0.0000
     atom:   42    charge:    0.1913    magn:   -0.0001    constr:    0.0000
     atom:   43    charge:    0.1733    magn:   -0.0003    constr:    0.0000
     atom:   44    charge:    0.1733    magn:   -0.0003    constr:    0.0000
     atom:   45    charge:    0.1921    magn:   -0.0002    constr:    0.0000
     atom:   46    charge:    0.1921    magn:   -0.0002    constr:    0.0000
     atom:   47    charge:    0.2045    magn:   -0.0001    constr:    0.0000
     atom:   48    charge:    0.2093    magn:   -0.0000    constr:    0.0000

     End of self-consistent calculation
 --- enter write_ns ---
 LDA+U parameters:
U( 1)     =  4.00000000
alpha( 1) =  0.00000000
atom    1   Tr[ns(na)] (up, down, total) =   1.96677  1.13044  3.09721
   spin  1
    eigenvalues:
  0.164  0.182  0.342  0.406  0.872
    eigenvectors:
  0.144  0.496  0.003  0.015  0.341
  0.214  0.022  0.146  0.536  0.082
  0.121  0.150  0.501  0.179  0.049
  0.260  0.307  0.288  0.039  0.105
  0.260  0.025  0.061  0.231  0.422
    occupations:
  0.419  0.142  0.092  0.127  0.250
  0.142  0.378  0.073  0.069  0.030
  0.092  0.073  0.334 -0.033  0.085
  0.127  0.069 -0.033  0.305  0.150
  0.250  0.030  0.085  0.150  0.530
   spin  2
    eigenvalues:
  0.114  0.147  0.165  0.321  0.382
    eigenvectors:
  0.435  0.073  0.480  0.002  0.010
  0.098  0.167  0.073  0.138  0.523
  0.028  0.184  0.112  0.507  0.169
  0.058  0.385  0.228  0.286  0.043
  0.381  0.191  0.106  0.066  0.255
    occupations:
  0.144  0.010 -0.004 -0.012 -0.032
  0.010  0.292  0.024 -0.001 -0.107
 -0.004  0.024  0.276 -0.085 -0.018
 -0.012 -0.001 -0.085  0.209 -0.001
 -0.032 -0.107 -0.018 -0.001  0.208
atomic mag. moment =     0.836323
atom    2   Tr[ns(na)] (up, down, total) =   1.96677  1.13044  3.09721
   spin  1
    eigenvalues:
  0.164  0.182  0.342  0.406  0.872
    eigenvectors:
  0.144  0.495  0.003  0.015  0.341
  0.284  0.068  0.646  0.000  0.002
  0.052  0.104  0.001  0.715  0.129
  0.035  0.172  0.003  0.265  0.525
  0.486  0.161  0.347  0.005  0.002
    occupations:
  0.419 -0.008 -0.169 -0.279  0.015
 -0.008  0.282  0.017  0.019 -0.084
 -0.169  0.017  0.430  0.081  0.003
 -0.279  0.019  0.081  0.604 -0.023
  0.015 -0.084  0.003 -0.023  0.232
   spin  2
    eigenvalues:
  0.114  0.147  0.165  0.321  0.382
    eigenvectors:
  0.435  0.073  0.480  0.002  0.010
  0.000  0.332  0.024  0.644  0.000
  0.126  0.020  0.162  0.001  0.692
  0.429  0.005  0.272  0.002  0.292
  0.010  0.571  0.063  0.350  0.005
    occupations:
  0.144  0.009 -0.007  0.033 -0.006
  0.009  0.260  0.005 -0.004 -0.082
 -0.007  0.005  0.309 -0.110  0.014
  0.033 -0.004 -0.110  0.207 -0.000
 -0.006 -0.082  0.014 -0.000  0.210
atomic mag. moment =     0.836330
atom    3   Tr[ns(na)] (up, down, total) =   1.98534  1.09325  3.07859
   spin  1
    eigenvalues:
  0.166  0.171  0.345  0.391  0.912
    eigenvectors:
  0.687  0.125  0.001  0.002  0.186
  0.089  0.230  0.662  0.000  0.018
  0.039  0.034  0.002  0.557  0.368
  0.050  0.109  0.000  0.435  0.406
  0.135  0.502  0.336  0.006  0.022
    occupations:
  0.306  0.047 -0.188 -0.211  0.047
  0.047  0.299 -0.050 -0.065 -0.067
 -0.188 -0.050  0.567  0.178 -0.058
 -0.211 -0.065  0.178  0.568 -0.082
  0.047 -0.067 -0.058 -0.082  0.246
   spin  2
    eigenvalues:
  0.113  0.138  0.155  0.322  0.365
    eigenvectors:
  0.259  0.738  0.001  0.002  0.001
  0.024  0.023  0.291  0.661  0.000
  0.305  0.089  0.021  0.002  0.583
  0.375  0.137  0.077  0.000  0.411
  0.036  0.013  0.611  0.334  0.005
    occupations:
  0.132  0.005  0.012  0.004 -0.006
  0.005  0.264  0.014  0.005 -0.080
  0.012  0.014  0.264 -0.119  0.012
  0.004  0.005 -0.119  0.223 -0.006
 -0.006 -0.080  0.012 -0.006  0.210
atomic mag. moment =     0.892089
atom    4   Tr[ns(na)] (up, down, total) =   1.98522  1.09328  3.07850
   spin  1
    eigenvalues:
  0.166  0.171  0.345  0.391  0.913
    eigenvectors:
  0.683  0.126  0.001  0.002  0.190
  0.106  0.007  0.136  0.404  0.349
  0.025  0.258  0.528  0.154  0.036
  0.041  0.605  0.247  0.069  0.038
  0.145  0.005  0.089  0.372  0.388
    occupations:
  0.309  0.188  0.054  0.066  0.207
  0.188  0.541  0.092  0.080  0.168
  0.054  0.092  0.323 -0.058  0.073
  0.066  0.080 -0.058  0.257  0.100
  0.207  0.168  0.073  0.100  0.556
   spin  2
    eigenvalues:
  0.113  0.138  0.155  0.322  0.366
    eigenvectors:
  0.262  0.735  0.001  0.002  0.001
  0.308  0.113  0.022  0.133  0.425
  0.020  0.000  0.291  0.531  0.158
  0.020  0.007  0.664  0.242  0.066
  0.389  0.145  0.023  0.093  0.350
    occupations:
  0.132 -0.008 -0.010  0.003 -0.007
 -0.008  0.252  0.007 -0.009 -0.116
 -0.010  0.007  0.276 -0.082 -0.016
  0.003 -0.009 -0.082  0.208  0.003
 -0.007 -0.116 -0.016  0.003  0.225
atomic mag. moment =     0.891935
atom    5   Tr[ns(na)] (up, down, total) =   1.98524  1.09328  3.07852
   spin  1
    eigenvalues:
  0.166  0.171  0.345  0.391  0.913
    eigenvectors:
  0.683  0.125  0.001  0.002  0.189
  0.090  0.232  0.661  0.000  0.017
  0.041  0.033  0.002  0.557  0.367
  0.052  0.107  0.000  0.435  0.405
  0.135  0.503  0.336  0.006  0.021
    occupations:
  0.309  0.047 -0.189 -0.213  0.046
  0.047  0.298 -0.049 -0.063 -0.068
 -0.189 -0.049  0.566  0.178 -0.056
 -0.213 -0.063  0.178  0.567 -0.080
  0.046 -0.068 -0.056 -0.080  0.245
   spin  2
    eigenvalues:
  0.113  0.138  0.155  0.322  0.366
    eigenvectors:
  0.262  0.735  0.001  0.002  0.001
  0.024  0.023  0.292  0.661  0.000
  0.304  0.090  0.020  0.002  0.583
  0.374  0.139  0.076  0.000  0.411
  0.036  0.013  0.611  0.335  0.005
    occupations:
  0.132  0.005  0.012  0.004 -0.006
  0.005  0.264  0.014  0.005 -0.080
  0.012  0.014  0.264 -0.119  0.012
  0.004  0.005 -0.119  0.223 -0.006
 -0.006 -0.080  0.012 -0.006  0.210
atomic mag. moment =     0.891959
atom    6   Tr[ns(na)] (up, down, total) =   1.98528  1.09327  3.07856
   spin  1
    eigenvalues:
  0.166  0.171  0.345  0.391  0.912
    eigenvectors:
  0.688  0.124  0.001  0.002  0.185
  0.102  0.007  0.135  0.404  0.352
  0.025  0.258  0.529  0.153  0.035
  0.042  0.606  0.247  0.069  0.036
  0.142  0.005  0.089  0.372  0.392
    occupations:
  0.305  0.186  0.052  0.064  0.206
  0.186  0.544  0.091  0.079  0.170
  0.052  0.091  0.322 -0.059  0.072
  0.064  0.079 -0.059  0.255  0.098
  0.206  0.170  0.072  0.098  0.559
   spin  2
    eigenvalues:
  0.113  0.138  0.155  0.322  0.365
    eigenvectors:
  0.258  0.738  0.001  0.002  0.001
  0.310  0.111  0.021  0.132  0.425
  0.020  0.000  0.290  0.531  0.158
  0.020  0.007  0.665  0.242  0.066
  0.392  0.143  0.023  0.092  0.350
    occupations:
  0.132 -0.008 -0.010  0.003 -0.007
 -0.008  0.252  0.007 -0.009 -0.116
 -0.010  0.007  0.276 -0.082 -0.016
  0.003 -0.009 -0.082  0.208  0.003
 -0.007 -0.116 -0.016  0.003  0.225
atomic mag. moment =     0.892009
N of occupied +U levels =   18.508596
 --- exit write_ns ---

 ------ SPIN UP ------------

          k = 0.0000 0.0000 0.0000 ( 49665 PWs)   bands (ev):

   -47.3984 -47.3970 -47.3775 -47.3638 -47.2814 -47.2483 -47.2287 -47.2277
   -47.1896 -47.1885 -25.1758 -25.1523 -25.0791 -24.9609 -24.9432 -24.9180
   -24.8954 -24.8725 -24.8488 -24.8427 -24.8185 -24.7907 -24.7892 -24.7204
   -24.7167 -24.7054 -24.7034 -24.6992 -24.5950 -24.5177 -24.5129 -24.4914
   -24.4770 -24.4291 -24.4224 -24.4211 -24.4164 -24.4142 -24.3389 -24.3380
   -10.1363 -10.0064  -9.7299  -9.3114  -9.1932  -9.1245  -9.1114  -9.0759
    -8.9730  -8.9251  -8.9046  -8.8767  -8.8303  -8.7434  -8.6428  -8.6140
    -8.5689  -8.5677  -8.5653  -8.4912  -8.4802  -8.4138  -8.4040  -8.2371
     2.0901   2.2235   2.2516   2.3052   2.3750   2.4581   2.4808   2.8176
     2.8181   3.0430   3.1743   3.2281   3.2478   3.2492   3.2686   3.2958
     3.3234   3.3661   3.3741   3.5337   3.6842   3.7126   3.7840   4.0508
     4.0904   4.1609   4.2320   4.2689   4.2808   4.2992   4.3401   4.3831
     4.4075   4.4079   4.6327   4.6611   4.7626   4.8318   4.9836   5.0039
     5.0167   5.0699   5.3065   5.3619   5.3636   5.4419   5.4618   5.4619
     5.4831   5.5238   5.5553   5.6092   5.6178   5.6478   5.6811   5.7067
     5.7644   5.8821   5.8958   5.9706   6.0877   6.1074   6.1506   6.3220
     6.4091   6.5368   6.5862   6.5948   6.6079   6.6202   6.6222   6.6665
     8.2543   8.5307   8.5502   8.5529   8.7278   8.8322  10.2073  10.3990
    10.4328  10.4744  10.5127  10.6114  10.7442  10.7726  10.7896  10.7961
    10.8339  10.8514  11.0524  11.0568  11.0647  11.3714  11.4566  11.4587
    11.7799  11.8162  11.8953  12.0965  12.1086  12.1360  12.8487

[...]

          k =-0.5000-0.2887 0.0000 ( 49808 PWs)   bands (ev):

[...]

 ------ SPIN DOWN ----------

[...]

          k = 0.2500-0.1443-0.2047 ( 49720 PWs)   bands (ev):

[...]

          k =-0.2500-0.4330-0.2047 ( 49760 PWs)   bands (ev):

   -47.2530 -47.2523 -47.2113 -47.2110 -46.4673 -46.4673 -46.3470 -46.3462
   -46.3388 -46.3380 -24.8299 -24.8285 -24.7405 -24.7350 -24.6963 -24.6907
   -24.6549 -24.6541 -24.6357 -24.6355 -24.5555 -24.5552 -24.4852 -24.4836
   -24.4794 -24.4768 -24.4123 -24.4114 -23.7082 -23.7081 -23.5415 -23.5386
   -23.5183 -23.5156 -23.4611 -23.4604 -23.3335 -23.3321 -23.3108 -23.3097
    -9.7207  -9.7125  -9.3691  -9.3456  -9.2174  -9.2081  -9.0494  -9.0403
    -9.0166  -9.0083  -8.8853  -8.8682  -8.8383  -8.7837  -8.7269  -8.7184
    -8.6069  -8.5970  -8.5387  -8.4969  -8.4521  -8.4249  -8.3732  -8.3653
     2.8169   2.8313   3.0368   3.0582   3.1379   3.1713   3.1956   3.2474
     3.2835   3.2878   3.3876   3.4056   3.5155   3.5535   3.5665   3.6313
     3.6669   3.6817   3.7571   3.7591   3.7820   3.8325   3.9052   4.0428
     4.0664   4.1257   4.2058   4.2303   4.3640   4.3684   4.3989   4.4400
     4.4539   4.4948   4.6410   4.6959   4.6969   4.7020   4.7542   4.8255
     4.9799   5.0381   5.0878   5.1372   5.2357   5.2548   5.3349   5.3701
     5.3867   5.4075   5.4497   5.4651   5.5492   5.5741   5.6037   5.6603
     5.7703   5.8247   5.8848   5.9378   5.9850   6.0294   6.0427   6.0583
     6.1419   6.2229   6.2522   6.2600   6.3163   6.4711   6.5419   6.6153
    10.2664  10.2877  10.5135  10.5168  10.5897  10.6065  10.6972  10.7341
    10.8292  10.8427  10.9850  11.0230  11.9463  11.9610  11.9929  11.9965
    12.0373  12.0540  12.1321  12.1440  12.2148  12.2328  12.3585  12.3905
    12.6680  12.6757  12.7791  12.8723  12.9528  13.0239  13.0750

     the Fermi energy is     9.4304 ev

!    total energy              =   -1944.10692392 Ry
     Harris-Foulkes estimate   =   -1944.10692320 Ry
     estimated scf accuracy    <       0.00000108 Ry

     The total energy is the sum of the following terms:

     one-electron contribution =    -997.01361707 Ry
     hartree contribution      =     628.90618530 Ry
     xc contribution           =    -319.83563881 Ry
     ewald contribution        =   -1257.61393438 Ry
     Hubbard energy            =       1.45008103 Ry
     smearing contrib. (-TS)   =      -0.00000000 Ry

     total magnetization       =     6.00 Bohr mag/cell
     absolute magnetization    =     6.60 Bohr mag/cell

     convergence has been achieved in  31 iterations

     Writing output data file system.save

     General routines

     Parallel routines

     Hubbard U routines

   This run was terminated on:   1:27:57   1Jun2017

   JOB DONE.