     Program PWSCF v.6.1 starts on  2Jun2017 at  7: 9:38

     Current dimensions of program PWSCF are:
     Max number of different atomic species (ntypx) = 10
     Max number of k-points (npk) =  40000
     Max angular momentum in pseudopotentials (lmaxx) =  3
     WARNING: atomic wfc #  4 for atom type 1 has zero norm
               file 06-c.lda.fhi.UPF: wavefunction(s)  4f renormalized

     Subspace diagonalization in iterative solution of the eigenvalue problem:
     a serial algorithm will be used

     bravais-lattice index     =            0
     lattice parameter (alat)  =       5.9717  a.u.
     unit-cell volume          =     150.5858 (a.u.)^3
     number of atoms/cell      =            2
     number of atomic types    =            2
     number of electrons       =        17.00
     number of Kohn-Sham states=           24
     kinetic-energy cutoff     =     100.0000  Ry
     charge density cutoff     =     400.0000  Ry
     convergence threshold     =      1.1E-06
     mixing beta               =       0.3000
     number of iterations used =            8  plain     mixing
     Exchange-correlation      = SLA-PW ( 1  4  0  0 0 0)

     celldm(1)=   5.971724  celldm(2)=   0.000000  celldm(3)=   0.000000
     celldm(4)=   0.000000  celldm(5)=   0.000000  celldm(6)=   0.000000

     crystal axes: (cart. coord. in units of alat)
               a(1) = (   1.000000   0.000000   0.000000 )
               a(2) = (   0.500000   0.866025   0.000000 )
               a(3) = (   0.500000   0.288675   0.816497 )

     reciprocal axes: (cart. coord. in units 2 pi/alat)
               b(1) = (  1.000000 -0.577350 -0.408248 )
               b(2) = (  0.000000  1.154701 -0.408248 )
               b(3) = (  0.000000  0.000000  1.224745 )

     PseudoPot. # 1 for Nb read from file:
     ./nb.fhi.UPF
     MD5 check sum: 4f71706d5dc12bdd9bf23a8f1f1a4338
     Pseudo is Norm-conserving, Zval = 13.0
     Generated using FHI98PP, converted with fhi2upf.x v.5.0.2
     Using radial grid of 1171 points,  3 beta functions with:
                l(1) =   0
                l(2) =   1
                l(3) =   2

     PseudoPot. # 2 for  C read from file:
     ./06-c.lda.fhi.UPF
     MD5 check sum: 13ff76dfb29e90984447383659675a25
     Pseudo is Norm-conserving, Zval =  4.0
     Generated using FHI98PP, converted with fhi2upf.x v.5.0.1
     Using radial grid of  461 points,  3 beta functions with:
                l(1) =   0
                l(2) =   1
                l(3) =   3

     atomic species   valence    mass     pseudopotential
        Nb            13.00    92.90640     Nb( 1.00)
        C              4.00    12.01070      C( 1.00)

     12 Sym. Ops., with inversion, found

                                    s                        frac. trans.

      isym =  1     identity

 cryst.   s( 1) = (     1          0          0      )
                  (     0          1          0      )
                  (     0          0          1      )

 cart.    s( 1) = (  1.0000000  0.0000000 -0.0000000 )
                  (  0.0000000  1.0000000 -0.0000000 )
                  (  0.0000000  0.0000000  1.0000000 )

      isym =  2     180 deg rotation - cart. axis [1,0,0]

[...]

      isym =  3     120 deg rotation - cryst. axis [0,0,1]

[...]

      isym =  6     180 deg rotation - cryst. axis [1,1,0]

[...]

      isym =  7     inversion

[...]

      isym =  8     inv. 180 deg rotation - cart. axis [1,0,0]

[...]

      isym =  9     inv. 120 deg rotation - cryst. axis [0,0,1]

 cryst.   s( 9) = (     1         -1          0      )
                  (     1          0          0      )
                  (     1          0         -1      )

 cart.    s( 9) = (  0.5000000  0.8660254 -0.0000000 )
                  ( -0.8660254  0.5000000  0.0000000 )
                  (  0.0000000  0.0000000 -1.0000000 )

[...]

 cryst.   s(10) = (     0          1          0      )
                  (    -1          1          0      )
                  (     0          1         -1      )

 cart.    s(10) = (  0.5000000 -0.8660254  0.0000000 )
                  (  0.8660254  0.5000000 -0.0000000 )
                  (  0.0000000  0.0000000 -1.0000000 )

[...]

      isym = 12     inv. 180 deg rotation - cryst. axis [1,1,0]

 cryst.   s(12) = (     1         -1          0      )
                  (     0         -1          0      )
                  (     0         -1          1      )

 cart.    s(12) = (  0.5000000 -0.8660254  0.0000000 )
                  ( -0.8660254 -0.5000000  0.0000000 )
                  (  0.0000000  0.0000000  1.0000000 )

   Cartesian axes

     site n.     atom                  positions (alat units)
         1           Nb  tau(   1) = (   0.0000000   0.0000000   0.0000000  )
         2           C   tau(   2) = (   1.0000000   0.5773503   0.4082483  )

   Crystallographic axes

     site n.     atom                  positions (cryst. coord.)
         1           Nb  tau(   1) = (  0.0000000  0.0000000  0.0000000  )
         2           C   tau(   2) = (  0.5000000  0.5000000  0.5000000  )

     number of k points=   580  Fermi-Dirac smearing, width (Ry)=  0.0200
                       cart. coord. in units 2pi/alat
        k(    1) = (   0.0000000   0.0000000   0.0000000), wk =   0.0003429
        k(    2) = (   0.0000000   0.0000000   0.0680414), wk =   0.0006859
        k(    3) = (   0.0000000   0.0000000   0.1360828), wk =   0.0006859
        k(    4) = (   0.0000000   0.0000000   0.2041241), wk =   0.0006859
        k(    5) = (   0.0000000   0.0000000   0.2721655), wk =   0.0006859
        k(    6) = (   0.0000000   0.0000000   0.3402069), wk =   0.0006859
        k(    7) = (   0.0000000   0.0000000   0.4082483), wk =   0.0006859
        k(    8) = (   0.0000000   0.0000000   0.4762897), wk =   0.0006859
        k(    9) = (   0.0000000   0.0000000   0.5443311), wk =   0.0006859
        k(   10) = (   0.0000000   0.0000000  -0.6123724), wk =   0.0003429
        k(   11) = (   0.0000000   0.0641500  -0.0226805), wk =   0.0020576
        k(   12) = (   0.0000000   0.0641500   0.0453609), wk =   0.0020576
        k(   13) = (   0.0000000   0.0641500   0.1134023), wk =   0.0020576
        k(   14) = (   0.0000000   0.0641500   0.1814437), wk =   0.0020576
        k(   15) = (   0.0000000   0.0641500   0.2494851), wk =   0.0020576
        k(   16) = (   0.0000000   0.0641500   0.3175264), wk =   0.0020576
        k(   17) = (   0.0000000   0.0641500   0.3855678), wk =   0.0020576
        k(   18) = (   0.0000000   0.0641500   0.4536092), wk =   0.0020576
        k(   19) = (   0.0000000   0.0641500   0.5216506), wk =   0.0020576
        k(   20) = (   0.0000000   0.0641500  -0.6350529), wk =   0.0020576
        k(   21) = (   0.0000000   0.0641500  -0.5670115), wk =   0.0020576
        k(   22) = (   0.0000000   0.0641500  -0.4989701), wk =   0.0020576
        k(   23) = (   0.0000000   0.0641500  -0.4309288), wk =   0.0020576
        k(   24) = (   0.0000000   0.0641500  -0.3628874), wk =   0.0020576
        k(   25) = (   0.0000000   0.0641500  -0.2948460), wk =   0.0020576
        k(   26) = (   0.0000000   0.0641500  -0.2268046), wk =   0.0020576
        k(   27) = (   0.0000000   0.0641500  -0.1587632), wk =   0.0020576
        k(   28) = (   0.0000000   0.0641500  -0.0907218), wk =   0.0020576
        k(   29) = (   0.0000000   0.1283001  -0.0453609), wk =   0.0020576
        k(   30) = (   0.0000000   0.1283001   0.0226805), wk =   0.0020576
        k(   31) = (   0.0000000   0.1283001   0.0907218), wk =   0.0020576
        k(   32) = (   0.0000000   0.1283001   0.1587632), wk =   0.0020576
        k(   33) = (   0.0000000   0.1283001   0.2268046), wk =   0.0020576
        k(   34) = (   0.0000000   0.1283001   0.2948460), wk =   0.0020576
        k(   35) = (   0.0000000   0.1283001   0.3628874), wk =   0.0020576
        k(   36) = (   0.0000000   0.1283001   0.4309288), wk =   0.0020576
        k(   37) = (   0.0000000   0.1283001   0.4989701), wk =   0.0020576
        k(   38) = (   0.0000000   0.1283001  -0.6577334), wk =   0.0020576
        k(   39) = (   0.0000000   0.1283001  -0.5896920), wk =   0.0020576
        k(   40) = (   0.0000000   0.1283001  -0.5216506), wk =   0.0020576
        k(   41) = (   0.0000000   0.1283001  -0.4536092), wk =   0.0020576
        k(   42) = (   0.0000000   0.1283001  -0.3855678), wk =   0.0020576
        k(   43) = (   0.0000000   0.1283001  -0.3175264), wk =   0.0020576
        k(   44) = (   0.0000000   0.1283001  -0.2494851), wk =   0.0020576
        k(   45) = (   0.0000000   0.1283001  -0.1814437), wk =   0.0020576
        k(   46) = (   0.0000000   0.1283001  -0.1134023), wk =   0.0020576
        k(   47) = (   0.0000000   0.1924501  -0.0680414), wk =   0.0020576
        k(   48) = (   0.0000000   0.1924501  -0.0000000), wk =   0.0020576
        k(   49) = (   0.0000000   0.1924501   0.0680414), wk =   0.0020576
        k(   50) = (   0.0000000   0.1924501   0.1360828), wk =   0.0020576
        k(   51) = (   0.0000000   0.1924501   0.2041241), wk =   0.0020576
        k(   52) = (   0.0000000   0.1924501   0.2721655), wk =   0.0020576
        k(   53) = (   0.0000000   0.1924501   0.3402069), wk =   0.0020576
        k(   54) = (   0.0000000   0.1924501   0.4082483), wk =   0.0020576
        k(   55) = (   0.0000000   0.1924501   0.4762897), wk =   0.0020576
        k(   56) = (   0.0000000   0.1924501  -0.6804138), wk =   0.0020576
        k(   57) = (   0.0000000   0.1924501  -0.6123724), wk =   0.0020576
        k(   58) = (   0.0000000   0.1924501  -0.5443311), wk =   0.0020576
        k(   59) = (   0.0000000   0.1924501  -0.4762897), wk =   0.0020576
        k(   60) = (   0.0000000   0.1924501  -0.4082483), wk =   0.0020576
[...]
        k(  566) = (   0.2777778  -0.6094253   0.5216506), wk =   0.0041152
        k(  567) = (   0.2777778  -0.6094253   0.5896920), wk =   0.0041152
        k(  568) = (   0.2777778  -0.6094253  -0.5670115), wk =   0.0041152
        k(  569) = (   0.2777778  -0.6094253  -0.4989701), wk =   0.0041152
        k(  570) = (   0.2777778  -0.6094253  -0.4309288), wk =   0.0041152
        k(  571) = (   0.2777778  -0.6094253  -0.3628874), wk =   0.0041152
        k(  572) = (   0.2777778  -0.6094253  -0.2948460), wk =   0.0041152
        k(  573) = (   0.2777778  -0.6094253  -0.2268046), wk =   0.0041152
        k(  574) = (   0.2777778  -0.6094253  -0.1587632), wk =   0.0041152
        k(  575) = (   0.2777778  -0.6094253  -0.0907218), wk =   0.0041152
        k(  576) = (   0.2777778  -0.6094253  -0.0226805), wk =   0.0041152
        k(  577) = (   0.3333333  -0.5773503   0.0000000), wk =   0.0020576
        k(  578) = (   0.3333333  -0.5773503   0.0680414), wk =   0.0041152
        k(  579) = (   0.3333333  -0.5773503   0.1360828), wk =   0.0041152
        k(  580) = (   0.3333333  -0.5773503   0.2041241), wk =   0.0020576

                       cryst. coord.
        k(    1) = (   0.0000000   0.0000000   0.0000000), wk =   0.0003429
        k(    2) = (   0.0000000   0.0000000   0.0555556), wk =   0.0006859
        k(    3) = (   0.0000000   0.0000000   0.1111111), wk =   0.0006859
        k(    4) = (   0.0000000   0.0000000   0.1666667), wk =   0.0006859
        k(    5) = (   0.0000000   0.0000000   0.2222222), wk =   0.0006859
        k(    6) = (   0.0000000   0.0000000   0.2777778), wk =   0.0006859
        k(    7) = (   0.0000000   0.0000000   0.3333333), wk =   0.0006859
        k(    8) = (   0.0000000   0.0000000   0.3888889), wk =   0.0006859
        k(    9) = (   0.0000000   0.0000000   0.4444444), wk =   0.0006859
        k(   10) = (   0.0000000   0.0000000  -0.5000000), wk =   0.0003429
        k(   11) = (   0.0000000   0.0555556  -0.0000000), wk =   0.0020576
        k(   12) = (   0.0000000   0.0555556   0.0555556), wk =   0.0020576
        k(   13) = (   0.0000000   0.0555556   0.1111111), wk =   0.0020576
        k(   14) = (   0.0000000   0.0555556   0.1666667), wk =   0.0020576
        k(   15) = (   0.0000000   0.0555556   0.2222222), wk =   0.0020576
        k(   16) = (   0.0000000   0.0555556   0.2777778), wk =   0.0020576
        k(   17) = (   0.0000000   0.0555556   0.3333333), wk =   0.0020576
        k(   18) = (   0.0000000   0.0555556   0.3888889), wk =   0.0020576
        k(   19) = (   0.0000000   0.0555556   0.4444444), wk =   0.0020576
        k(   20) = (   0.0000000   0.0555556  -0.5000000), wk =   0.0020576
        k(   21) = (   0.0000000   0.0555556  -0.4444444), wk =   0.0020576
        k(   22) = (   0.0000000   0.0555556  -0.3888889), wk =   0.0020576
        k(   23) = (   0.0000000   0.0555556  -0.3333333), wk =   0.0020576
        k(   24) = (   0.0000000   0.0555556  -0.2777778), wk =   0.0020576
        k(   25) = (   0.0000000   0.0555556  -0.2222222), wk =   0.0020576
        k(   26) = (   0.0000000   0.0555556  -0.1666667), wk =   0.0020576
        k(   27) = (   0.0000000   0.0555556  -0.1111111), wk =   0.0020576
        k(   28) = (   0.0000000   0.0555556  -0.0555556), wk =   0.0020576
        k(   29) = (   0.0000000   0.1111111  -0.0000000), wk =   0.0020576
        k(   30) = (   0.0000000   0.1111111   0.0555556), wk =   0.0020576
        k(   31) = (   0.0000000   0.1111111   0.1111111), wk =   0.0020576
        k(   32) = (   0.0000000   0.1111111   0.1666667), wk =   0.0020576
        k(   33) = (   0.0000000   0.1111111   0.2222222), wk =   0.0020576
        k(   34) = (   0.0000000   0.1111111   0.2777778), wk =   0.0020576
        k(   35) = (   0.0000000   0.1111111   0.3333333), wk =   0.0020576
        k(   36) = (   0.0000000   0.1111111   0.3888889), wk =   0.0020576
        k(   37) = (   0.0000000   0.1111111   0.4444444), wk =   0.0020576
        k(   38) = (   0.0000000   0.1111111  -0.5000000), wk =   0.0020576
        k(   39) = (   0.0000000   0.1111111  -0.4444444), wk =   0.0020576
        k(   40) = (   0.0000000   0.1111111  -0.3888889), wk =   0.0020576
        k(   41) = (   0.0000000   0.1111111  -0.3333333), wk =   0.0020576
        k(   42) = (   0.0000000   0.1111111  -0.2777778), wk =   0.0020576
        k(   43) = (   0.0000000   0.1111111  -0.2222222), wk =   0.0020576
        k(   44) = (   0.0000000   0.1111111  -0.1666667), wk =   0.0020576
        k(   45) = (   0.0000000   0.1111111  -0.1111111), wk =   0.0020576
        k(   46) = (   0.0000000   0.1111111  -0.0555556), wk =   0.0020576
        k(   47) = (   0.0000000   0.1666667  -0.0000000), wk =   0.0020576
        k(   48) = (   0.0000000   0.1666667   0.0555556), wk =   0.0020576
        k(   49) = (   0.0000000   0.1666667   0.1111111), wk =   0.0020576
        k(   50) = (   0.0000000   0.1666667   0.1666667), wk =   0.0020576
        k(   51) = (   0.0000000   0.1666667   0.2222222), wk =   0.0020576
        k(   52) = (   0.0000000   0.1666667   0.2777778), wk =   0.0020576
        k(   53) = (   0.0000000   0.1666667   0.3333333), wk =   0.0020576
        k(   54) = (   0.0000000   0.1666667   0.3888889), wk =   0.0020576
        k(   55) = (   0.0000000   0.1666667   0.4444444), wk =   0.0020576
        k(   56) = (   0.0000000   0.1666667  -0.5000000), wk =   0.0020576
        k(   57) = (   0.0000000   0.1666667  -0.4444444), wk =   0.0020576
        k(   58) = (   0.0000000   0.1666667  -0.3888889), wk =   0.0020576
        k(   59) = (   0.0000000   0.1666667  -0.3333333), wk =   0.0020576
        k(   60) = (   0.0000000   0.1666667  -0.2777778), wk =   0.0020576
[...]
        k(  566) = (   0.2777778  -0.3888889   0.3888889), wk =   0.0041152
        k(  567) = (   0.2777778  -0.3888889   0.4444444), wk =   0.0041152
        k(  568) = (   0.2777778  -0.3888889  -0.5000000), wk =   0.0041152
        k(  569) = (   0.2777778  -0.3888889  -0.4444444), wk =   0.0041152
        k(  570) = (   0.2777778  -0.3888889  -0.3888889), wk =   0.0041152
        k(  571) = (   0.2777778  -0.3888889  -0.3333333), wk =   0.0041152
        k(  572) = (   0.2777778  -0.3888889  -0.2777778), wk =   0.0041152
        k(  573) = (   0.2777778  -0.3888889  -0.2222222), wk =   0.0041152
        k(  574) = (   0.2777778  -0.3888889  -0.1666667), wk =   0.0041152
        k(  575) = (   0.2777778  -0.3888889  -0.1111111), wk =   0.0041152
        k(  576) = (   0.2777778  -0.3888889  -0.0555556), wk =   0.0041152
        k(  577) = (   0.3333333  -0.3333333   0.0000000), wk =   0.0020576
        k(  578) = (   0.3333333  -0.3333333   0.0555556), wk =   0.0041152
        k(  579) = (   0.3333333  -0.3333333   0.1111111), wk =   0.0041152
        k(  580) = (   0.3333333  -0.3333333   0.1666667), wk =   0.0020576

     Initial potential from superposition of free atoms

     starting charge   11.99996, renormalised to   17.00000
     Starting wfc are   25 randomized atomic wfcs

     Self-consistent Calculation

     iteration #  1     ecut=   100.00 Ry     beta= 0.30
     Davidson diagonalization with overlap
     ethr =  1.00E-02,  avg # of iterations =  4.2

     total energy              =    -125.36886622 Ry
     Harris-Foulkes estimate   =    -127.89053934 Ry
     estimated scf accuracy    <       5.71819180 Ry

[...]

     total energy              =    -125.20104722 Ry
     Harris-Foulkes estimate   =    -125.20104830 Ry
     estimated scf accuracy    <       0.00000264 Ry

     iteration #  9     ecut=   100.00 Ry     beta= 0.30
     Davidson diagonalization with overlap
     ethr =  1.56E-08,  avg # of iterations =  1.0

     End of self-consistent calculation

          k = 0.0000 0.0000 0.0000 (  2637 PWs)   bands (ev):

   -33.8515 -12.0121 -12.0121 -12.0121   5.6373  17.1570  17.1570  17.1570
    18.4564  18.4564  18.4564  18.7865  18.7865  26.5862  29.0958  40.8014
    40.8014  40.8014  45.6773  45.6773  45.6773  48.0480  48.0480  52.1817

     occupation numbers
     1.0000   1.0000   1.0000   1.0000   1.0000   0.9932   0.9932   0.9932
     0.5521   0.5521   0.5521   0.2682   0.2682   0.0000   0.0000   0.0000
     0.0000   0.0000   0.0000   0.0000   0.0000   0.0000   0.0000   0.0000

[...]

          k = 0.3333-0.5774 0.2041 (  2542 PWs)   bands (ev):

   -33.6736 -12.7000 -12.4555 -12.2397   7.8452  13.0069  14.2522  14.4070
    19.8514  19.9557  21.6823  24.5624  24.8913  29.7046  32.1042  32.6904
    35.0310  39.5844  39.7350  43.9643  46.3193  47.7075  48.3221  50.4797

     occupation numbers
     1.0000   1.0000   1.0000   1.0000   1.0000   1.0000   1.0000   1.0000
     0.0073   0.0050   0.0000   0.0000   0.0000   0.0000   0.0000   0.0000
     0.0000   0.0000   0.0000   0.0000   0.0000   0.0000   0.0000   0.0000

     the Fermi energy is    18.5133 ev

!    total energy              =    -125.20104765 Ry
     Harris-Foulkes estimate   =    -125.20104765 Ry
     estimated scf accuracy    <          6.9E-09 Ry

     The total energy is the sum of the following terms:

     one-electron contribution =      -9.13529968 Ry
     hartree contribution      =      14.88283819 Ry
     xc contribution           =     -17.08042266 Ry
     ewald contribution        =    -113.85416382 Ry
     smearing contrib. (-TS)   =      -0.01399967 Ry

     convergence has been achieved in   9 iterations

     Writing output data file pwscf.save

     General routines

     Parallel routines

   This run was terminated on:   7:12: 5   2Jun2017

   JOB DONE.